words_hard_train/4508.qaiger
aag 109 24 0 1 85
2
4
8
16
18
22
26
30
34
38
48
50
60
62
78
80
98
100
118
120
138
140
158
160
219
6 3 5
10 7 8
12 6 9
14 11 13
20 17 19
24 20 23
28 24 27
32 28 31
36 32 35
40 36 39
42 15 40
44 14 41
46 43 45
52 49 51
54 53 16
56 16 18
58 57 21
64 61 63
66 58 65
68 55 67
70 59 64
72 69 71
74 21 22
76 75 25
82 79 81
84 77 82
86 76 83
88 85 87
90 72 88
92 91 87
94 25 26
96 95 29
102 99 101
104 97 102
106 96 103
108 105 107
110 93 108
112 111 107
114 29 30
116 115 33
122 119 121
124 117 122
126 116 123
128 125 127
130 113 128
132 131 127
134 33 34
136 135 37
142 139 141
144 137 142
146 136 143
148 145 147
150 133 148
152 151 147
154 37 38
156 155 41
162 159 161
164 157 162
166 156 163
168 165 167
170 153 168
172 171 167
174 46 173
176 47 172
178 175 177
180 52 17
182 67 71
184 181 183
186 112 129
188 187 131
190 184 189
192 190 55
194 73 89
196 195 91
198 92 109
200 199 111
202 197 201
204 192 202
206 152 169
208 207 171
210 204 209
212 132 149
214 213 151
216 210 215
218 179 216
i0 2 y1[7]
i1 1 x1[7]
i2 2 y2[7]
i3 2 y2[0]
i4 2 y2[1]
i5 2 y2[2]
i6 2 y2[3]
i7 2 y2[4]
i8 2 y2[5]
i9 2 y2[6]
i10 2 y1[0]
i11 1 x1[0]
i12 2 y1[1]
i13 1 x1[1]
i14 2 y1[2]
i15 1 x1[2]
i16 2 y1[3]
i17 1 x1[3]
i18 2 y1[4]
i19 1 x1[4]
i20 2 y1[5]
i21 1 x1[5]
i22 2 y1[6]
i23 1 x1[6]
o0 bool[0]
c
simplified
  !=
    1
    add
      unary minus
        2 y2
      or
        1 x1
        2 y1
