words_hard_train/4508.qaiger.qdimacs
p cnf 109 256
a 2 70 40 80 50 25 60 31 0
e 1 3 4 5 6 7 8 9 10 11 12 13 14 15 16 17 18 19 20 21 22 23 24 26 27 28 29 30 32 33 34 35 36 37 38 39 41 42 43 44 45 46 47 48 49 51 52 53 54 55 56 57 58 59 61 62 63 64 65 66 67 68 69 71 72 73 74 75 76 77 78 79 81 82 83 84 85 86 87 88 89 90 91 92 93 94 95 96 97 98 99 100 101 102 103 104 105 106 107 108 109 0
1 2 3 0
-1 -3 0
-2 -3 0
3 -4 5 0
-3 -5 0
4 -5 0
-3 4 6 0
3 -6 0
-4 -6 0
5 6 7 0
-5 -7 0
-6 -7 0
8 9 10 0
-8 -10 0
-9 -10 0
-10 11 12 0
10 -12 0
-11 -12 0
-12 13 14 0
12 -14 0
-13 -14 0
-14 15 16 0
14 -16 0
-15 -16 0
-16 17 18 0
16 -18 0
-17 -18 0
-18 19 20 0
18 -20 0
-19 -20 0
7 -20 21 0
-7 -21 0
20 -21 0
-7 20 22 0
7 -22 0
-20 -22 0
21 22 23 0
-21 -23 0
-22 -23 0
24 25 26 0
-24 -26 0
-25 -26 0
26 -8 27 0
-26 -27 0
8 -27 0
-8 -9 28 0
8 -28 0
9 -28 0
28 10 29 0
-28 -29 0
-10 -29 0
30 31 32 0
-30 -32 0
-31 -32 0
-29 32 33 0
29 -33 0
-32 -33 0
27 33 34 0
-27 -34 0
-33 -34 0
29 -32 35 0
-29 -35 0
32 -35 0
34 35 36 0
-34 -36 0
-35 -36 0
10 -11 37 0
-10 -37 0
11 -37 0
37 12 38 0
-37 -38 0
-12 -38 0
39 40 41 0
-39 -41 0
-40 -41 0
38 -41 42 0
-38 -42 0
41 -42 0
-38 41 43 0
38 -43 0
-41 -43 0
42 43 44 0
-42 -44 0
-43 -44 0
-36 -44 45 0
36 -45 0
44 -45 0
45 43 46 0
-45 -46 0
-43 -46 0
12 -13 47 0
-12 -47 0
13 -47 0
47 14 48 0
-47 -48 0
-14 -48 0
49 50 51 0
-49 -51 0
-50 -51 0
48 -51 52 0
-48 -52 0
51 -52 0
-48 51 53 0
48 -53 0
-51 -53 0
52 53 54 0
-52 -54 0
-53 -54 0
46 -54 55 0
-46 -55 0
54 -55 0
55 53 56 0
-55 -56 0
-53 -56 0
14 -15 57 0
-14 -57 0
15 -57 0
57 16 58 0
-57 -58 0
-16 -58 0
59 60 61 0
-59 -61 0
-60 -61 0
58 -61 62 0
-58 -62 0
61 -62 0
-58 61 63 0
58 -63 0
-61 -63 0
62 63 64 0
-62 -64 0
-63 -64 0
56 -64 65 0
-56 -65 0
64 -65 0
65 63 66 0
-65 -66 0
-63 -66 0
16 -17 67 0
-16 -67 0
17 -67 0
67 18 68 0
-67 -68 0
-18 -68 0
69 70 71 0
-69 -71 0
-70 -71 0
68 -71 72 0
-68 -72 0
71 -72 0
-68 71 73 0
68 -73 0
-71 -73 0
72 73 74 0
-72 -74 0
-73 -74 0
66 -74 75 0
-66 -75 0
74 -75 0
75 73 76 0
-75 -76 0
-73 -76 0
18 -19 77 0
-18 -77 0
19 -77 0
77 20 78 0
-77 -78 0
-20 -78 0
79 80 81 0
-79 -81 0
-80 -81 0
78 -81 82 0
-78 -82 0
81 -82 0
-78 81 83 0
78 -83 0
-81 -83 0
82 83 84 0
-82 -84 0
-83 -84 0
76 -84 85 0
-76 -85 0
84 -85 0
85 83 86 0
-85 -86 0
-83 -86 0
-23 86 87 0
23 -87 0
-86 -87 0
23 -86 88 0
-23 -88 0
86 -88 0
87 88 89 0
-87 -89 0
-88 -89 0
-26 8 90 0
26 -90 0
-8 -90 0
33 35 91 0
-33 -91 0
-35 -91 0
90 91 92 0
-90 -92 0
-91 -92 0
-56 64 93 0
56 -93 0
-64 -93 0
93 65 94 0
-93 -94 0
-65 -94 0
-92 94 95 0
92 -95 0
-94 -95 0
-95 27 96 0
95 -96 0
-27 -96 0
36 44 97 0
-36 -97 0
-44 -97 0
97 45 98 0
-97 -98 0
-45 -98 0
-46 54 99 0
46 -99 0
-54 -99 0
99 55 100 0
-99 -100 0
-55 -100 0
98 100 101 0
-98 -101 0
-100 -101 0
-96 -101 102 0
96 -102 0
101 -102 0
-76 84 103 0
76 -103 0
-84 -103 0
103 85 104 0
-103 -104 0
-85 -104 0
-102 104 105 0
102 -105 0
-104 -105 0
-66 74 106 0
66 -106 0
-74 -106 0
106 75 107 0
-106 -107 0
-75 -107 0
-105 107 108 0
105 -108 0
-107 -108 0
89 -108 109 0
-89 -109 0
108 -109 0
-109 0
